&BANDS
  prefix = 'silicon'
  outdir = './tempdir'
  filband = 'si_bands.dat'
/
